qbf_easy_train/easy_4208_SAT.qdimacs
p cnf 26 62
a 2 4 21 0
e 1 3 5 6 7 8 9 10 11 12 13 14 15 16 17 18 19 20 22 23 24 25 26 0
1 -2 -3 0
-1 2 -3 0
1 2 3 0
-1 -2 3 0
-5 4 0
-5 1 0
-4 -1 5 0
-7 -5 0
-7 -6 0
5 6 7 0
9 -2 0
9 8 0
2 -8 -9 0
-9 10 0
9 10 0
-12 -11 0
-12 -9 0
11 9 12 0
-13 10 0
-13 -12 0
-10 12 13 0
-14 7 0
-14 13 0
-7 -13 14 0
15 -3 0
15 14 0
3 -14 -15 0
16 -4 0
16 -6 0
4 6 -16 0
18 17 0
18 -2 0
-17 2 -18 0
-19 -18 0
-19 6 0
18 -6 19 0
-20 -16 0
-20 19 0
16 -19 20 0
4 -21 -22 0
-4 21 -22 0
4 21 22 0
-4 -21 22 0
-23 2 0
-23 -9 0
-2 9 23 0
-24 22 0
-24 23 0
-22 -23 24 0
-25 -20 0
-25 24 0
20 -24 25 0
26 -15 0
26 -25 0
15 25 -26 0
4 -3 -12 0
25 7 -12 -16 4 0
1 4 -15 26 -3 21 16 0
18 17 -21 10 0
-19 -23 -4 -18 -7 -15 0
-8 -26 -23 -24 12 5 0
26 0
