sat_easy_train/easy_4208_SAT.dimacs
p cnf 105 345
3 1 0
3 -2 0
-1 2 -3 0
5 -4 0
5 4 0
-7 -5 0
-7 6 0
5 -6 7 0
-7 8 -9 0
7 -8 -9 0
-7 -8 9 0
7 8 9 0
10 -3 0
10 9 0
3 -9 -10 0
-13 -11 0
-13 12 0
11 -12 13 0
-15 -13 0
-15 -14 0
13 14 15 0
11 16 -17 0
-11 -16 -17 0
11 -16 17 0
-11 16 17 0
18 15 0
18 17 0
-15 -17 -18 0
-6 18 -19 0
6 -18 -19 0
-6 -18 19 0
6 18 19 0
-10 -19 -20 0
10 19 -20 0
-10 19 20 0
10 -19 20 0
-23 8 0
-23 22 0
-8 -22 23 0
24 2 0
24 23 0
-2 -23 -24 0
24 -1 -25 0
-24 1 -25 0
24 1 25 0
-24 -1 25 0
-26 21 0
-26 25 0
-21 -25 26 0
-26 -3 -27 0
26 3 -27 0
-26 3 27 0
26 -3 27 0
-28 -4 0
-28 -16 0
4 16 28 0
27 28 -29 0
-27 -28 -29 0
27 -28 29 0
-27 28 29 0
-30 20 0
-30 -29 0
-20 29 30 0
-4 -15 -31 0
4 15 -31 0
-4 15 31 0
4 -15 31 0
31 2 -32 0
-31 -2 -32 0
31 -2 32 0
-31 2 32 0
34 -7 0
34 33 0
7 -33 -34 0
-32 -34 -35 0
32 34 -35 0
-32 34 35 0
32 -34 35 0
-36 -14 -37 0
36 14 -37 0
-36 14 37 0
36 -14 37 0
-38 -37 0
-38 2 0
37 -2 38 0
39 34 0
39 -38 0
-34 38 -39 0
-35 -39 -40 0
35 39 -40 0
-35 39 40 0
35 -39 40 0
-41 -30 0
-41 -40 0
30 40 41 0
-21 -42 -43 0
21 42 -43 0
-21 42 43 0
21 -42 43 0
44 43 0
44 -9 0
-43 9 -44 0
45 2 0
45 44 0
-2 -44 -45 0
-47 46 0
-47 -6 0
-46 6 47 0
-48 33 0
-48 47 0
-33 -47 48 0
49 -34 0
49 -22 0
34 22 -49 0
-50 -48 0
-50 49 0
48 -49 50 0
-51 -45 0
-51 50 0
45 -50 51 0
52 -37 0
52 9 0
37 -9 -52 0
53 -11 0
53 52 0
11 -52 -53 0
54 -16 0
54 36 0
16 -36 -54 0
7 54 -55 0
-7 -54 -55 0
7 -54 55 0
-7 54 55 0
53 -55 -56 0
-53 55 -56 0
53 55 56 0
-53 -55 56 0
-43 22 -57 0
43 -22 -57 0
-43 -22 57 0
43 22 57 0
-58 23 0
-58 7 0
-23 -7 58 0
-59 -58 0
-59 -33 0
58 33 59 0
-60 -34 0
-60 -59 0
34 59 60 0
57 -60 -61 0
-57 60 -61 0
57 60 61 0
-57 -60 61 0
-1 61 -62 0
1 -61 -62 0
-1 -61 62 0
1 61 62 0
-63 21 0
-63 11 0
-21 -11 63 0
64 -62 0
64 -63 0
62 63 -64 0
56 64 -65 0
-56 -64 -65 0
56 -64 65 0
-56 64 65 0
66 36 -67 0
-66 -36 -67 0
66 -36 67 0
-66 36 67 0
-60 63 -68 0
60 -63 -68 0
-60 -63 68 0
60 63 68 0
69 67 0
69 68 0
-67 -68 -69 0
-65 -69 -70 0
65 69 -70 0
-65 69 70 0
65 -69 70 0
71 -31 0
71 44 0
31 -44 -71 0
72 -71 0
72 -46 0
71 46 -72 0
2 8 -73 0
-2 -8 -73 0
2 -8 73 0
-2 8 73 0
74 16 0
74 73 0
-16 -73 -74 0
75 72 0
75 74 0
-72 -74 -75 0
-70 75 -76 0
70 -75 -76 0
-70 -75 76 0
70 75 76 0
77 51 0
77 -76 0
-51 76 -77 0
78 41 0
78 77 0
-41 -77 -78 0
-6 7 -79 0
6 -7 -79 0
-6 -7 79 0
6 7 79 0
-80 58 0
-80 46 0
-58 -46 80 0
81 79 0
81 80 0
-79 -80 -81 0
-82 21 0
-82 43 0
-21 -43 82 0
-83 -81 0
-83 -82 0
81 82 83 0
84 -78 0
84 83 0
78 -83 -84 0
-37 -5 -85 0
37 5 -85 0
-37 5 85 0
37 -5 85 0
86 17 0
86 58 0
-17 -58 -86 0
-87 -86 0
-87 26 0
86 -26 87 0
85 -87 -88 0
-85 87 -88 0
85 87 88 0
-85 -87 88 0
-44 -15 -89 0
44 15 -89 0
-44 15 89 0
44 -15 89 0
-7 -9 -90 0
7 9 -90 0
-7 9 90 0
7 -9 90 0
-91 90 0
-91 -35 0
-90 35 91 0
89 -91 -92 0
-89 91 -92 0
89 91 92 0
-89 -91 92 0
93 2 0
93 -12 0
-2 12 -93 0
-94 6 0
-94 8 0
-6 -8 94 0
-95 2 0
-95 94 0
-2 -94 95 0
-96 93 0
-96 95 0
-93 -95 96 0
-97 8 0
-97 59 0
-8 -59 97 0
98 -3 0
98 -23 0
3 23 -98 0
-97 98 -99 0
97 -98 -99 0
-97 -98 99 0
97 98 99 0
-100 96 0
-100 99 0
-96 -99 100 0
-101 -92 0
-101 100 0
92 -100 101 0
-102 46 0
-102 16 0
-46 -16 102 0
103 101 0
103 102 0
-101 -102 -103 0
-88 103 -104 0
88 -103 -104 0
-88 -103 104 0
88 103 104 0
-84 -104 -105 0
84 104 -105 0
-84 104 105 0
84 -104 105 0
35 30 97 91 54 0
-105 -38 55 -3 -11 0
-12 -99 61 39 0
-53 74 -34 68 -65 59 0
11 39 31 0
79 -71 -20 76 -44 -36 0
-67 -72 -76 -40 0
-17 -15 -44 36 105 0
81 39 0
82 72 0
83 7 77 0
49 -63 -99 94 0
96 95 65 0
73 -34 -56 21 75 104 0
-53 2 -36 46 0
61 -89 79 -26 -27 9 0
-49 -91 31 68 -6 0
-55 -51 0
-97 -102 -20 86 0
84 48 59 4 0
-81 -13 35 73 98 0
-46 -26 -37 86 0
19 -17 -47 37 -101 0
-94 96 26 0
54 -96 74 -65 0
101 -78 -59 -35 60 0
42 56 3 -48 -66 93 0
-8 -15 -76 102 -69 -88 0
-70 90 43 72 0
19 92 91 84 14 -90 0
-22 88 0
10 -69 15 91 0
-104 78 0
3 31 14 -90 0
-16 -105 63 37 -35 0
61 -27 45 -84 17 0
-87 27 -55 -7 88 -105 0
58 95 -15 -50 0
96 -74 0
-93 24 42 0
-101 48 -57 -85 0
40 -21 39 30 0
100 68 0
56 -101 10 0
88 -41 -82 -24 0
105 0
